c Reduced graph for p16_0 generated by Cyril Grelier
p edge 34 134
v 1 915
v 2 860
v 3 860
v 4 700
v 5 519
v 6 480
v 7 466
v 8 405
v 9 395
v 10 366
v 11 345
v 12 344
v 13 258
v 14 173
v 15 150
v 16 95
v 17 88
v 18 88
v 19 86
v 20 80
v 21 80
v 22 78
v 23 73
v 24 67
v 25 63
v 26 56
v 27 56
v 28 50
v 29 45
v 30 40
v 31 37
v 32 16
v 33 15
v 34 5
e 1 5
e 1 10
e 1 11
e 1 17
e 1 24
e 1 26
e 1 32
e 1 34
e 2 3
e 2 6
e 2 15
e 2 18
e 2 21
e 2 24
e 2 25
e 3 8
e 3 13
e 3 18
e 3 21
e 3 26
e 3 33
e 4 7
e 4 14
e 4 16
e 4 19
e 4 20
e 4 22
e 4 29
e 4 32
e 5 11
e 5 18
e 5 19
e 5 23
e 5 24
e 5 26
e 5 27
e 5 34
e 6 8
e 6 15
e 6 24
e 6 25
e 6 27
e 6 28
e 6 29
e 7 16
e 7 22
e 7 25
e 7 29
e 7 31
e 7 33
e 8 13
e 8 26
e 8 27
e 8 28
e 8 29
e 8 33
e 9 10
e 9 11
e 9 13
e 9 14
e 9 22
e 9 30
e 9 31
e 10 13
e 10 17
e 10 22
e 10 32
e 11 14
e 11 24
e 11 26
e 11 30
e 11 31
e 11 34
e 12 15
e 12 16
e 12 17
e 12 20
e 12 21
e 12 23
e 12 28
e 12 30
e 12 34
e 13 22
e 13 26
e 13 33
e 14 19
e 14 20
e 14 30
e 14 31
e 14 32
e 15 16
e 15 17
e 15 23
e 15 24
e 15 25
e 15 30
e 16 17
e 16 22
e 16 23
e 16 29
e 16 30
e 17 23
e 17 30
e 17 32
e 18 19
e 18 21
e 18 23
e 18 27
e 19 20
e 19 23
e 19 27
e 19 32
e 20 21
e 20 28
e 20 32
e 20 34
e 21 28
e 21 34
e 22 29
e 23 27
e 23 30
e 24 25
e 24 26
e 24 34
e 25 31
e 25 33
e 26 33
e 26 34
e 27 28
e 27 29
e 28 29
e 28 34
e 30 31
e 31 33
